p cnf 130 440
c p weight 52 -1 0
c p weight -52 1 0
c p weight 54 6.12323399573676603586882014729198302312846062338790031898128063403419218957424163818359375E-17 0
c p weight -54 1 0
c p weight 55 1 0
c p weight -55 1 0
c p weight 56 -1 0
c p weight -56 1 0
c p weight 58 -1 0
c p weight -58 1 0
c p weight 61 -1 0
c p weight -61 1 0
c p weight 64 -1 0
c p weight -64 1 0
c p weight 67 -1 0
c p weight -67 1 0
c p weight 70 -1 0
c p weight -70 1 0
c p weight 73 -1 0
c p weight -73 1 0
c p weight 76 -1 0
c p weight -76 1 0
c p weight 79 -1 0
c p weight -79 1 0
c p weight 82 -1 0
c p weight -82 1 0
c p weight 85 -1 0
c p weight -85 1 0
c p weight 88 -1 0
c p weight -88 1 0
c p weight 91 -1 0
c p weight -91 1 0
c p weight 94 -1 0
c p weight -94 1 0
c p weight 97 -1 0
c p weight -97 1 0
c p weight 100 -1 0
c p weight -100 1 0
c p weight 103 -1 0
c p weight -103 1 0
c p weight 106 -1 0
c p weight -106 1 0
c p weight 109 -1 0
c p weight -109 1 0
c p weight 112 -1 0
c p weight -112 1 0
c p weight 115 -1 0
c p weight -115 1 0
c p weight 118 -1 0
c p weight -118 1 0
c p weight 121 -1 0
c p weight -121 1 0
c p weight 124 -1 0
c p weight -124 1 0
c p weight 127 -1 0
c p weight -127 1 0
c p weight 130 -1 0
c p weight -130 1 0
-49 0
-47 0
-45 0
-43 0
-41 0
-39 0
-37 0
-35 0
-33 0
-31 0
-29 0
-27 0
-25 0
-23 0
-21 0
-19 0
-17 0
-15 0
-13 0
-11 0
-9 0
-7 0
-5 0
-3 0
-1 0
51 49 -50 0
51 -49 50 0
-51 49 50 0
-51 -49 -50 0
-52 49 0
-52 50 0
52 -49 -50 0
53 -49 51 0
-53 49 51 0
-54 51 0
53 -54 -49 0
-53 -54 49 0
53 54 49 -51 0
-53 54 -49 -51 0
-55 51 0
53 -55 49 0
-53 -55 -49 0
53 55 -49 -51 0
-53 55 49 -51 0
-56 53 0
-56 51 0
-56 -49 0
56 -53 49 -51 0
57 53 -51 0
57 -53 51 0
-57 53 51 0
-57 -53 -51 0
-58 53 0
-58 51 0
58 -53 -51 0
59 53 -47 0
59 -53 47 0
-59 53 47 0
-59 -53 -47 0
60 57 -48 0
60 -57 48 0
-60 57 48 0
-60 -57 -48 0
-61 53 0
-61 48 0
-61 47 -57 0
-61 -47 57 0
61 -53 47 57 -48 0
61 -53 -47 -57 -48 0
62 59 -45 0
62 -59 45 0
-62 59 45 0
-62 -59 -45 0
63 48 -46 0
63 -48 46 0
-63 48 46 0
-63 -48 -46 0
-64 59 0
-64 46 0
-64 45 -48 0
-64 -45 48 0
64 -59 45 48 -46 0
64 -59 -45 -48 -46 0
65 62 -43 0
65 -62 43 0
-65 62 43 0
-65 -62 -43 0
66 46 -44 0
66 -46 44 0
-66 46 44 0
-66 -46 -44 0
-67 62 0
-67 44 0
-67 43 -46 0
-67 -43 46 0
67 -62 43 46 -44 0
67 -62 -43 -46 -44 0
68 65 -41 0
68 -65 41 0
-68 65 41 0
-68 -65 -41 0
69 44 -42 0
69 -44 42 0
-69 44 42 0
-69 -44 -42 0
-70 65 0
-70 42 0
-70 41 -44 0
-70 -41 44 0
70 -65 41 44 -42 0
70 -65 -41 -44 -42 0
71 68 -39 0
71 -68 39 0
-71 68 39 0
-71 -68 -39 0
72 42 -40 0
72 -42 40 0
-72 42 40 0
-72 -42 -40 0
-73 68 0
-73 40 0
-73 39 -42 0
-73 -39 42 0
73 -68 39 42 -40 0
73 -68 -39 -42 -40 0
74 71 -37 0
74 -71 37 0
-74 71 37 0
-74 -71 -37 0
75 40 -38 0
75 -40 38 0
-75 40 38 0
-75 -40 -38 0
-76 71 0
-76 38 0
-76 37 -40 0
-76 -37 40 0
76 -71 37 40 -38 0
76 -71 -37 -40 -38 0
77 74 -35 0
77 -74 35 0
-77 74 35 0
-77 -74 -35 0
78 38 -36 0
78 -38 36 0
-78 38 36 0
-78 -38 -36 0
-79 74 0
-79 36 0
-79 35 -38 0
-79 -35 38 0
79 -74 35 38 -36 0
79 -74 -35 -38 -36 0
80 77 -33 0
80 -77 33 0
-80 77 33 0
-80 -77 -33 0
81 36 -34 0
81 -36 34 0
-81 36 34 0
-81 -36 -34 0
-82 77 0
-82 34 0
-82 33 -36 0
-82 -33 36 0
82 -77 33 36 -34 0
82 -77 -33 -36 -34 0
83 80 -31 0
83 -80 31 0
-83 80 31 0
-83 -80 -31 0
84 34 -32 0
84 -34 32 0
-84 34 32 0
-84 -34 -32 0
-85 80 0
-85 32 0
-85 31 -34 0
-85 -31 34 0
85 -80 31 34 -32 0
85 -80 -31 -34 -32 0
86 83 -29 0
86 -83 29 0
-86 83 29 0
-86 -83 -29 0
87 32 -30 0
87 -32 30 0
-87 32 30 0
-87 -32 -30 0
-88 83 0
-88 30 0
-88 29 -32 0
-88 -29 32 0
88 -83 29 32 -30 0
88 -83 -29 -32 -30 0
89 86 -27 0
89 -86 27 0
-89 86 27 0
-89 -86 -27 0
90 30 -28 0
90 -30 28 0
-90 30 28 0
-90 -30 -28 0
-91 86 0
-91 28 0
-91 27 -30 0
-91 -27 30 0
91 -86 27 30 -28 0
91 -86 -27 -30 -28 0
92 89 -25 0
92 -89 25 0
-92 89 25 0
-92 -89 -25 0
93 28 -26 0
93 -28 26 0
-93 28 26 0
-93 -28 -26 0
-94 89 0
-94 26 0
-94 25 -28 0
-94 -25 28 0
94 -89 25 28 -26 0
94 -89 -25 -28 -26 0
95 92 -23 0
95 -92 23 0
-95 92 23 0
-95 -92 -23 0
96 26 -24 0
96 -26 24 0
-96 26 24 0
-96 -26 -24 0
-97 92 0
-97 24 0
-97 23 -26 0
-97 -23 26 0
97 -92 23 26 -24 0
97 -92 -23 -26 -24 0
98 95 -21 0
98 -95 21 0
-98 95 21 0
-98 -95 -21 0
99 24 -22 0
99 -24 22 0
-99 24 22 0
-99 -24 -22 0
-100 95 0
-100 22 0
-100 21 -24 0
-100 -21 24 0
100 -95 21 24 -22 0
100 -95 -21 -24 -22 0
101 98 -19 0
101 -98 19 0
-101 98 19 0
-101 -98 -19 0
102 22 -20 0
102 -22 20 0
-102 22 20 0
-102 -22 -20 0
-103 98 0
-103 20 0
-103 19 -22 0
-103 -19 22 0
103 -98 19 22 -20 0
103 -98 -19 -22 -20 0
104 101 -17 0
104 -101 17 0
-104 101 17 0
-104 -101 -17 0
105 20 -18 0
105 -20 18 0
-105 20 18 0
-105 -20 -18 0
-106 101 0
-106 18 0
-106 17 -20 0
-106 -17 20 0
106 -101 17 20 -18 0
106 -101 -17 -20 -18 0
107 104 -15 0
107 -104 15 0
-107 104 15 0
-107 -104 -15 0
108 18 -16 0
108 -18 16 0
-108 18 16 0
-108 -18 -16 0
-109 104 0
-109 16 0
-109 15 -18 0
-109 -15 18 0
109 -104 15 18 -16 0
109 -104 -15 -18 -16 0
110 107 -13 0
110 -107 13 0
-110 107 13 0
-110 -107 -13 0
111 16 -14 0
111 -16 14 0
-111 16 14 0
-111 -16 -14 0
-112 107 0
-112 14 0
-112 13 -16 0
-112 -13 16 0
112 -107 13 16 -14 0
112 -107 -13 -16 -14 0
113 110 -11 0
113 -110 11 0
-113 110 11 0
-113 -110 -11 0
114 14 -12 0
114 -14 12 0
-114 14 12 0
-114 -14 -12 0
-115 110 0
-115 12 0
-115 11 -14 0
-115 -11 14 0
115 -110 11 14 -12 0
115 -110 -11 -14 -12 0
116 113 -9 0
116 -113 9 0
-116 113 9 0
-116 -113 -9 0
117 12 -10 0
117 -12 10 0
-117 12 10 0
-117 -12 -10 0
-118 113 0
-118 10 0
-118 9 -12 0
-118 -9 12 0
118 -113 9 12 -10 0
118 -113 -9 -12 -10 0
119 116 -7 0
119 -116 7 0
-119 116 7 0
-119 -116 -7 0
120 10 -8 0
120 -10 8 0
-120 10 8 0
-120 -10 -8 0
-121 116 0
-121 8 0
-121 7 -10 0
-121 -7 10 0
121 -116 7 10 -8 0
121 -116 -7 -10 -8 0
122 119 -5 0
122 -119 5 0
-122 119 5 0
-122 -119 -5 0
123 8 -6 0
123 -8 6 0
-123 8 6 0
-123 -8 -6 0
-124 119 0
-124 6 0
-124 5 -8 0
-124 -5 8 0
124 -119 5 8 -6 0
124 -119 -5 -8 -6 0
125 122 -3 0
125 -122 3 0
-125 122 3 0
-125 -122 -3 0
126 6 -4 0
126 -6 4 0
-126 6 4 0
-126 -6 -4 0
-127 122 0
-127 4 0
-127 3 -6 0
-127 -3 6 0
127 -122 3 6 -4 0
127 -122 -3 -6 -4 0
128 125 -1 0
128 -125 1 0
-128 125 1 0
-128 -125 -1 0
129 4 -2 0
129 -4 2 0
-129 4 2 0
-129 -4 -2 0
-130 125 0
-130 2 0
-130 1 -4 0
-130 -1 4 0
130 -125 1 4 -2 0
130 -125 -1 -4 -2 0
-128 0
-125 0
-129 0
-122 0
-126 0
-119 0
-123 0
-116 0
-120 0
-113 0
-117 0
-110 0
-114 0
-107 0
-111 0
-104 0
-108 0
-101 0
-105 0
-98 0
-102 0
-95 0
-99 0
-92 0
-96 0
-89 0
-93 0
-86 0
-90 0
-83 0
-87 0
-80 0
-84 0
-77 0
-81 0
-74 0
-78 0
-71 0
-75 0
-68 0
-72 0
-65 0
-69 0
-62 0
-66 0
-59 0
-63 0
-53 0
-60 0
